treewidth/data/ClebschGraph.gr
p tw 16 40
1 2
1 13
1 15
1 3
1 6
2 10
2 11
2 16
2 8
9 10
9 15
9 3
9 5
9 8
10 12
10 13
10 4
11 12
11 3
11 5
11 7
12 14
12 15
12 6
13 14
13 5
13 7
14 16
14 3
14 8
15 16
15 7
16 4
16 5
3 4
4 6
4 7
5 6
6 8
7 8
