treewidth/data/ClebschGraph.td
c width = 8, time = 0.276917
s td 8 9 16
b 1 1 4 7 8 9 11 12 13 16
b 2 1 4 8 9 10 11 12 13 16
b 3 1 2 8 10 11 16
b 4 1 4 8 9 11 12 13 14 16
b 5 1 3 4 9 11 14
b 6 1 4 6 8 9 11 12 13 16
b 7 5 6 9 11 13 16
b 8 1 7 9 12 15 16
2 3
1 2
4 5
1 4
6 7
1 6
1 8
